NAME: instance_1454
TYPE: TSP
DIMENSION: 20
EDGE_WEIGHT_TYPE: EUC_2D
NODE_COORD_SECTION
0 98.15 42.99
1 7.42 58.50
2 39.37 28.36
3 36.45 9.39
4 51.64 78.81
5 9.02 93.32
6 48.64 44.20
7 92.50 60.18
8 32.78 85.28
9 90.04 59.40
10 90.86 87.58
11 38.14 4.99
12 73.09 99.52
13 17.16 95.66
14 15.41 41.48
15 32.35 45.36
16 36.31 77.11
17 78.23 66.46
18 56.91 82.88
19 18.16 76.24
EOF
